; benchmark generated from python API
(set-info :status unknown)
(declare-fun x_days () Int)
(declare-fun y_days () Int)
(assert
 (>= x_days (- 36584)))
(assert
 (<= x_days 36829))
(assert
 (>= y_days (- 36584)))
(assert
 (<= y_days 36829))
(assert
 (>= x_days 7244))
(assert
 (<= x_days 7276))
(assert
 (let ((?x550 (+ x_days 730179)))
 (let ((?x203 (mod ?x550 146097)))
 (let ((?x145 (div ?x203 36524)))
 (let ((?x470 (ite (<= 4 ?x145) 3 ?x145)))
 (let ((?x510 (- ?x203 (* ?x470 36524))))
 (let ((?x774 (mod ?x510 1461)))
 (let ((?x535 (div ?x774 365)))
 (let ((?x2174 (ite (<= 4 ?x535) 3 ?x535)))
 (let ((?x702 (+ (+ (* (div ?x550 146097) 400) (* ?x470 100)) (* (div ?x510 1461) 4))))
 (let ((?x444 (+ (+ ?x702 ?x2174) 1)))
 (let (($x461 (or (and (= (mod ?x444 4) 0) (and (distinct (mod ?x444 100) 0) true)) (= (mod ?x444 400) 0))))
 (let ((?x579 (- ?x774 (* ?x2174 365))))
 (let ((?x341 (ite $x461 31 31)))
 (let (($x2371 (>= ?x579 ?x341)))
 (let ((?x1373 (ite $x2371 (+ (- ?x579 ?x341) 1) (+ (- ?x579 (ite $x461 0 0)) 1))))
 (let ((?x498 (ite $x461 60 59)))
 (let (($x421 (>= ?x579 ?x498)))
 (let ((?x729 (ite $x461 91 90)))
 (let (($x427 (>= ?x579 ?x729)))
 (let ((?x660 (ite $x427 (+ (- ?x579 ?x729) 1) (ite $x421 (+ (- ?x579 ?x498) 1) ?x1373))))
 (let ((?x403 (ite $x461 121 120)))
 (let (($x544 (>= ?x579 ?x403)))
 (let ((?x320 (ite $x461 152 151)))
 (let (($x513 (>= ?x579 ?x320)))
 (let ((?x2721 (ite $x513 (+ (- ?x579 ?x320) 1) (ite $x544 (+ (- ?x579 ?x403) 1) ?x660))))
 (let ((?x685 (ite $x461 182 181)))
 (let (($x263 (>= ?x579 ?x685)))
 (let ((?x628 (ite $x461 213 212)))
 (let (($x512 (>= ?x579 ?x628)))
 (let ((?x182 (ite $x512 (+ (- ?x579 ?x628) 1) (ite $x263 (+ (- ?x579 ?x685) 1) ?x2721))))
 (let ((?x2464 (ite $x461 244 243)))
 (let (($x581 (>= ?x579 ?x2464)))
 (let ((?x3121 (ite $x461 274 273)))
 (let (($x505 (>= ?x579 ?x3121)))
 (let ((?x98 (ite $x505 (+ (- ?x579 ?x3121) 1) (ite $x581 (+ (- ?x579 ?x2464) 1) ?x182))))
 (let ((?x747 (ite $x461 305 304)))
 (let (($x2616 (>= ?x579 ?x747)))
 (let ((?x809 (ite $x461 335 334)))
 (let (($x47 (>= ?x579 ?x809)))
 (let ((?x697 (ite $x47 (+ (- ?x579 ?x809) 1) (ite $x2616 (+ (- ?x579 ?x747) 1) ?x98))))
 (let ((?x345 (ite $x544 5 (ite $x427 4 (ite $x421 3 (ite $x2371 2 1))))))
 (let ((?x730 (ite $x581 9 (ite $x512 8 (ite $x263 7 (ite $x513 6 ?x345))))))
 (let ((?x673 (+ (ite $x47 12 (ite $x2616 11 (ite $x505 10 ?x730))) (+ (* 1 12) 0))))
 (let ((?x2429 (- ?x673 1)))
 (let ((?x737 (+ (mod ?x2429 12) 1)))
 (let ((?x2483 (ite (or (= ?x737 4) (= ?x737 6) (= ?x737 9) (= ?x737 11)) 30 31)))
 (let (($x264 (and (= (mod (+ ?x444 (+ 0 (div ?x2429 12))) 4) 0) (and (distinct (mod (+ ?x444 (+ 0 (div ?x2429 12))) 100) 0) true))))
 (let (($x335 (or $x264 (= (mod (+ ?x444 (+ 0 (div ?x2429 12))) 400) 0))))
 (let ((?x692 (ite (= ?x737 2) (ite $x335 29 28) ?x2483)))
 (let ((?x732 (ite (> 1 ?x697) 1 (ite (> ?x697 ?x692) ?x692 ?x697))))
 (let ((?x445 (ite (> 1 ?x732) 1 (ite (> ?x732 ?x692) ?x692 ?x732))))
 (let ((?x465 (ite (= 2 ?x737) (ite $x335 31 31) (ite (= 1 ?x737) (ite $x335 0 0) 0))))
 (let ((?x120 (ite (= 4 ?x737) (ite $x335 91 90) (ite (= 3 ?x737) (ite $x335 60 59) ?x465))))
 (let ((?x1986 (ite (= 6 ?x737) (ite $x335 152 151) (ite (= 5 ?x737) (ite $x335 121 120) ?x120))))
 (let ((?x547 (ite (= 8 ?x737) (ite $x335 213 212) (ite (= 7 ?x737) (ite $x335 182 181) ?x1986))))
 (let ((?x586 (ite (= 10 ?x737) (ite $x335 274 273) (ite (= 9 ?x737) (ite $x335 244 243) ?x547))))
 (let ((?x59 (ite (= 12 ?x737) (ite $x335 335 334) (ite (= 11 ?x737) (ite $x335 305 304) ?x586))))
 (let ((?x1140 (+ (* 365 (- (+ ?x444 (+ 0 (div ?x2429 12))) 1)) (div (- (+ ?x444 (+ 0 (div ?x2429 12))) 1) 4))))
 (let ((?x712 (+ (- ?x1140 (div (- (+ ?x444 (+ 0 (div ?x2429 12))) 1) 100)) (div (- (+ ?x444 (+ 0 (div ?x2429 12))) 1) 400))))
 (let ((?x114 (+ (+ (- (+ (+ ?x712 ?x59) (- ?x445 1)) 730179) 0) 730179)))
 (let ((?x613 (mod ?x114 146097)))
 (let ((?x240 (div ?x613 36524)))
 (let ((?x748 (ite (<= 4 ?x240) 3 ?x240)))
 (let ((?x1237 (- ?x613 (* ?x748 36524))))
 (let ((?x458 (mod ?x1237 1461)))
 (let ((?x600 (div ?x458 365)))
 (let ((?x1536 (ite (<= 4 ?x600) 3 ?x600)))
 (let ((?x154 (+ (+ (* (div ?x114 146097) 400) (* ?x748 100)) (* (div ?x1237 1461) 4))))
 (let ((?x229 (+ (+ ?x154 ?x1536) 1)))
 (let (($x190 (or (and (= (mod ?x229 4) 0) (and (distinct (mod ?x229 100) 0) true)) (= (mod ?x229 400) 0))))
 (let ((?x202 (- ?x458 (* ?x1536 365))))
 (let ((?x562 (ite $x190 31 31)))
 (let (($x2599 (>= ?x202 ?x562)))
 (let ((?x268 (ite $x2599 (+ (- ?x202 ?x562) 1) (+ (- ?x202 (ite $x190 0 0)) 1))))
 (let ((?x93 (ite $x190 60 59)))
 (let (($x304 (>= ?x202 ?x93)))
 (let ((?x423 (ite $x190 91 90)))
 (let (($x1034 (>= ?x202 ?x423)))
 (let ((?x615 (ite $x1034 (+ (- ?x202 ?x423) 1) (ite $x304 (+ (- ?x202 ?x93) 1) ?x268))))
 (let ((?x274 (ite $x190 121 120)))
 (let (($x606 (>= ?x202 ?x274)))
 (let ((?x359 (ite $x190 152 151)))
 (let (($x2500 (>= ?x202 ?x359)))
 (let ((?x1163 (ite $x2500 (+ (- ?x202 ?x359) 1) (ite $x606 (+ (- ?x202 ?x274) 1) ?x615))))
 (let ((?x2534 (ite $x190 182 181)))
 (let (($x1033 (>= ?x202 ?x2534)))
 (let ((?x306 (ite $x190 213 212)))
 (let (($x2335 (>= ?x202 ?x306)))
 (let ((?x1991 (ite $x2335 (+ (- ?x202 ?x306) 1) (ite $x1033 (+ (- ?x202 ?x2534) 1) ?x1163))))
 (let ((?x707 (ite $x190 244 243)))
 (let (($x650 (>= ?x202 ?x707)))
 (let ((?x302 (ite $x190 274 273)))
 (let (($x241 (>= ?x202 ?x302)))
 (let ((?x1721 (ite $x241 (+ (- ?x202 ?x302) 1) (ite $x650 (+ (- ?x202 ?x707) 1) ?x1991))))
 (let ((?x2147 (ite $x190 305 304)))
 (let (($x1133 (>= ?x202 ?x2147)))
 (let ((?x14 (ite $x190 335 334)))
 (let (($x1712 (>= ?x202 ?x14)))
 (let ((?x572 (ite $x1712 (+ (- ?x202 ?x14) 1) (ite $x1133 (+ (- ?x202 ?x2147) 1) ?x1721))))
 (let (($x687 (= 0 0)))
 (let (($x32 (= (mod (ite $x687 (+ ?x444 (+ 0 (div ?x2429 12))) ?x229) 400) 0)))
 (let (($x2161 (and (distinct (mod (ite $x687 (+ ?x444 (+ 0 (div ?x2429 12))) ?x229) 100) 0) true)))
 (let (($x545 (= (mod (ite $x687 (+ ?x444 (+ 0 (div ?x2429 12))) ?x229) 4) 0)))
 (let (($x752 (or (and $x545 $x2161) $x32)))
 (let ((?x514 (ite $x606 5 (ite $x1034 4 (ite $x304 3 (ite $x2599 2 1))))))
 (let ((?x1725 (ite $x650 9 (ite $x2335 8 (ite $x1033 7 (ite $x2500 6 ?x514))))))
 (let ((?x617 (ite $x687 ?x737 (ite $x1712 12 (ite $x1133 11 (ite $x241 10 ?x1725))))))
 (let ((?x83 (ite (= 2 ?x617) (ite $x752 31 31) (ite (= 1 ?x617) (ite $x752 0 0) 0))))
 (let ((?x898 (ite (= 4 ?x617) (ite $x752 91 90) (ite (= 3 ?x617) (ite $x752 60 59) ?x83))))
 (let ((?x2594 (ite (= 6 ?x617) (ite $x752 152 151) (ite (= 5 ?x617) (ite $x752 121 120) ?x898))))
 (let ((?x584 (ite (= 8 ?x617) (ite $x752 213 212) (ite (= 7 ?x617) (ite $x752 182 181) ?x2594))))
 (let ((?x587 (ite (= 10 ?x617) (ite $x752 274 273) (ite (= 9 ?x617) (ite $x752 244 243) ?x584))))
 (let ((?x219 (ite (= 12 ?x617) (ite $x752 335 334) (ite (= 11 ?x617) (ite $x752 305 304) ?x587))))
 (let ((?x735 (+ ?x444 (+ 0 (div ?x2429 12)))))
 (let ((?x3155 (ite $x687 ?x735 ?x229)))
 (let ((?x597 (- ?x3155 1)))
 (let ((?x635 (+ (- (+ (* 365 ?x597) (div ?x597 4)) (div ?x597 100)) (div ?x597 400))))
 (= y_days (- (+ (+ ?x635 ?x219) (- (ite $x687 ?x445 ?x572) 1)) 730179))))))))))))))))))))))))))))))))))))))))))))))))))))))))))))))))))))))))))))))))))))))))))))))))))))))))))))))))))))))))
(assert
 (not (= y_days (+ x_days 365))))
(check-sat)
